p cnf 963 2472
51 -2 -1 0
-51 2 0
-51 1 0
52 -51 -696 0
-52 51 0
-52 696 0
53 -5 -4 0
-53 5 0
-53 4 0
54 -53 -6 0
-54 53 0
-54 6 0
55 -697 -698 0
-55 697 0
-55 698 0
56 -8 -7 0
-56 8 0
-56 7 0
57 -56 -699 0
-57 56 0
-57 699 0
58 -700 -55 0
-58 700 0
-58 55 0
59 -11 -10 0
-59 11 0
-59 10 0
60 -59 -701 0
-60 59 0
-60 701 0
61 -702 -58 0
-61 702 0
-61 58 0
62 -13 -703 0
-62 13 0
-62 703 0
63 -62 -14 0
-63 62 0
-63 14 0
64 -704 -61 0
-64 704 0
-64 61 0
65 -705 -10 0
-65 705 0
-65 10 0
66 -65 -16 0
-66 65 0
-66 16 0
67 -706 -64 0
-67 706 0
-67 64 0
68 -707 -696 0
-68 707 0
-68 696 0
69 -68 -17 0
-69 68 0
-69 17 0
70 -708 -67 0
-70 708 0
-70 67 0
71 -19 -709 0
-71 19 0
-71 709 0
72 -71 -20 0
-72 71 0
-72 20 0
73 -710 -70 0
-73 710 0
-73 70 0
74 -711 -707 0
-74 711 0
-74 707 0
75 -74 -712 0
-75 74 0
-75 712 0
76 -713 -73 0
-76 713 0
-76 73 0
77 -24 -23 0
-77 24 0
-77 23 0
78 -77 -25 0
-78 77 0
-78 25 0
79 -714 -76 0
-79 714 0
-79 76 0
80 -715 -26 0
-80 715 0
-80 26 0
81 -80 -716 0
-81 80 0
-81 716 0
82 -717 -79 0
-82 717 0
-82 79 0
83 -718 -719 0
-83 718 0
-83 719 0
84 -83 -30 0
-84 83 0
-84 30 0
85 -720 -82 0
-85 720 0
-85 82 0
86 -31 -721 0
-86 31 0
-86 721 0
87 -86 -722 0
-87 86 0
-87 722 0
88 -723 -85 0
-88 723 0
-88 85 0
89 -24 -724 0
-89 24 0
-89 724 0
90 -89 -33 0
-90 89 0
-90 33 0
91 -725 -88 0
-91 725 0
-91 88 0
92 -34 -31 0
-92 34 0
-92 31 0
93 -92 -9 0
-93 92 0
-93 9 0
94 -726 -91 0
-94 726 0
-94 91 0
95 -35 -18 0
-95 35 0
-95 18 0
96 -95 -711 0
-96 95 0
-96 711 0
97 -727 -94 0
-97 727 0
-97 94 0
98 -728 -721 0
-98 728 0
-98 721 0
99 -98 -22 0
-99 98 0
-99 22 0
100 -729 -97 0
-100 729 0
-100 97 0
101 -730 -731 0
-101 730 0
-101 731 0
102 -101 -25 0
-102 101 0
-102 25 0
103 -732 -100 0
-103 732 0
-103 100 0
104 -733 -712 0
-104 733 0
-104 712 0
105 -104 -9 0
-105 104 0
-105 9 0
106 -734 -103 0
-106 734 0
-106 103 0
107 -36 -34 0
-107 36 0
-107 34 0
108 -107 -38 0
-108 107 0
-108 38 0
109 -735 -106 0
-109 735 0
-109 106 0
110 -40 -719 0
-110 40 0
-110 719 0
111 -110 -736 0
-111 110 0
-111 736 0
112 -737 -109 0
-112 737 0
-112 109 0
113 -738 -715 0
-113 738 0
-113 715 0
114 -113 -739 0
-114 113 0
-114 739 0
115 -740 -112 0
-115 740 0
-115 112 0
116 -22 -6 0
-116 22 0
-116 6 0
117 -116 -41 0
-117 116 0
-117 41 0
118 -741 -115 0
-118 741 0
-118 115 0
119 -4 -2 0
-119 4 0
-119 2 0
120 -119 -42 0
-120 119 0
-120 42 0
121 -742 -118 0
-121 742 0
-121 118 0
122 -74 -17 0
-122 74 0
-122 17 0
123 -743 -121 0
-123 743 0
-123 121 0
124 -722 -715 0
-124 722 0
-124 715 0
125 -124 -14 0
-125 124 0
-125 14 0
126 -744 -123 0
-126 744 0
-126 123 0
127 -43 -39 0
-127 43 0
-127 39 0
128 -127 -745 0
-128 127 0
-128 745 0
129 -746 -126 0
-129 746 0
-129 126 0
130 -731 -7 0
-130 731 0
-130 7 0
131 -130 -32 0
-131 130 0
-131 32 0
132 -747 -129 0
-132 747 0
-132 129 0
133 -705 -2 0
-133 705 0
-133 2 0
134 -133 -716 0
-134 133 0
-134 716 0
135 -748 -132 0
-135 748 0
-135 132 0
136 -749 -711 0
-136 749 0
-136 711 0
137 -136 -750 0
-137 136 0
-137 750 0
138 -751 -135 0
-138 751 0
-138 135 0
139 -34 -705 0
-139 34 0
-139 705 0
140 -139 -752 0
-140 139 0
-140 752 0
141 -753 -138 0
-141 753 0
-141 138 0
142 -754 -22 0
-142 754 0
-142 22 0
143 -142 -44 0
-143 142 0
-143 44 0
144 -755 -141 0
-144 755 0
-144 141 0
145 -47 -27 0
-145 47 0
-145 27 0
146 -145 -5 0
-146 145 0
-146 5 0
147 -756 -144 0
-147 756 0
-147 144 0
148 -43 -709 0
-148 43 0
-148 709 0
149 -148 -757 0
-149 148 0
-149 757 0
150 -758 -147 0
-150 758 0
-150 147 0
151 -759 -715 0
-151 759 0
-151 715 0
152 -151 -36 0
-152 151 0
-152 36 0
153 -760 -150 0
-153 760 0
-153 150 0
154 -759 -26 0
-154 759 0
-154 26 0
155 -154 -752 0
-155 154 0
-155 752 0
156 -761 -153 0
-156 761 0
-156 153 0
157 -27 -711 0
-157 27 0
-157 711 0
158 -157 -40 0
-158 157 0
-158 40 0
159 -762 -156 0
-159 762 0
-159 156 0
160 -35 -763 0
-160 35 0
-160 763 0
161 -160 -41 0
-161 160 0
-161 41 0
162 -764 -159 0
-162 764 0
-162 159 0
163 -731 -709 0
-163 731 0
-163 709 0
164 -163 -765 0
-164 163 0
-164 765 0
165 -766 -162 0
-165 766 0
-165 162 0
166 -34 -13 0
-166 34 0
-166 13 0
167 -166 -728 0
-167 166 0
-167 728 0
168 -767 -165 0
-168 767 0
-168 165 0
169 -768 -769 0
-169 768 0
-169 769 0
170 -169 -32 0
-170 169 0
-170 32 0
171 -770 -168 0
-171 770 0
-171 168 0
172 -703 -7 0
-172 703 0
-172 7 0
173 -172 -29 0
-173 172 0
-173 29 0
174 -771 -171 0
-174 771 0
-174 171 0
175 -14 -4 0
-175 14 0
-175 4 0
176 -175 -41 0
-176 175 0
-176 41 0
177 -772 -174 0
-177 772 0
-177 174 0
178 -773 -32 0
-178 773 0
-178 32 0
179 -178 -774 0
-179 178 0
-179 774 0
180 -775 -177 0
-180 775 0
-180 177 0
181 -47 -774 0
-181 47 0
-181 774 0
182 -181 -776 0
-182 181 0
-182 776 0
183 -777 -180 0
-183 777 0
-183 180 0
184 -739 -2 0
-184 739 0
-184 2 0
185 -184 -28 0
-185 184 0
-185 28 0
186 -778 -183 0
-186 778 0
-186 183 0
187 -779 -23 0
-187 779 0
-187 23 0
188 -187 -25 0
-188 187 0
-188 25 0
189 -780 -186 0
-189 780 0
-189 186 0
190 -759 -1 0
-190 759 0
-190 1 0
191 -190 -16 0
-191 190 0
-191 16 0
192 -781 -189 0
-192 781 0
-192 189 0
193 -782 -9 0
-193 782 0
-193 9 0
194 -193 -774 0
-194 193 0
-194 774 0
195 -783 -192 0
-195 783 0
-195 192 0
196 -4 -784 0
-196 4 0
-196 784 0
197 -196 -39 0
-197 196 0
-197 39 0
198 -785 -195 0
-198 785 0
-198 195 0
199 -749 -29 0
-199 749 0
-199 29 0
200 -199 -750 0
-200 199 0
-200 750 0
201 -786 -198 0
-201 786 0
-201 198 0
202 -782 -6 0
-202 782 0
-202 6 0
203 -202 -36 0
-203 202 0
-203 36 0
204 -787 -201 0
-204 787 0
-204 201 0
205 -738 -26 0
-205 738 0
-205 26 0
206 -205 -39 0
-206 205 0
-206 39 0
207 -788 -204 0
-207 788 0
-207 204 0
208 -773 -27 0
-208 773 0
-208 27 0
209 -208 -24 0
-209 208 0
-209 24 0
210 -789 -207 0
-210 789 0
-210 207 0
211 -722 -769 0
-211 722 0
-211 769 0
212 -211 -774 0
-212 211 0
-212 774 0
213 -790 -210 0
-213 790 0
-213 210 0
214 -754 -13 0
-214 754 0
-214 13 0
215 -214 -14 0
-215 214 0
-215 14 0
216 -791 -213 0
-216 791 0
-216 213 0
217 -792 -34 0
-217 792 0
-217 34 0
218 -217 -25 0
-218 217 0
-218 25 0
219 -793 -216 0
-219 793 0
-219 216 0
220 -733 -739 0
-220 733 0
-220 739 0
221 -220 -696 0
-221 220 0
-221 696 0
222 -794 -219 0
-222 794 0
-222 219 0
223 -50 -32 0
-223 50 0
-223 32 0
224 -223 -724 0
-224 223 0
-224 724 0
225 -795 -222 0
-225 795 0
-225 222 0
226 -50 -15 0
-226 50 0
-226 15 0
227 -226 -39 0
-227 226 0
-227 39 0
228 -796 -225 0
-228 796 0
-228 225 0
229 -718 -15 0
-229 718 0
-229 15 0
230 -229 -797 0
-230 229 0
-230 797 0
231 -798 -228 0
-231 798 0
-231 228 0
232 -718 -709 0
-232 718 0
-232 709 0
233 -232 -724 0
-233 232 0
-233 724 0
234 -799 -231 0
-234 799 0
-234 231 0
235 -48 -763 0
-235 48 0
-235 763 0
236 -235 -774 0
-236 235 0
-236 774 0
237 -800 -234 0
-237 800 0
-237 234 0
238 -765 -20 0
-238 765 0
-238 20 0
239 -238 -776 0
-239 238 0
-239 776 0
240 -801 -237 0
-240 801 0
-240 237 0
241 -37 -757 0
-241 37 0
-241 757 0
242 -241 -774 0
-242 241 0
-242 774 0
243 -802 -240 0
-243 802 0
-243 240 0
244 -722 -14 0
-244 722 0
-244 14 0
245 -244 -765 0
-245 244 0
-245 765 0
246 -803 -243 0
-246 803 0
-246 243 0
247 -166 -701 0
-247 166 0
-247 701 0
248 -804 -246 0
-248 804 0
-248 246 0
249 -19 -5 0
-249 19 0
-249 5 0
250 -249 -722 0
-250 249 0
-250 722 0
251 -805 -248 0
-251 805 0
-251 248 0
252 -45 -733 0
-252 45 0
-252 733 0
253 -252 -32 0
-253 252 0
-253 32 0
254 -806 -251 0
-254 806 0
-254 251 0
255 -35 -705 0
-255 35 0
-255 705 0
256 -255 -3 0
-256 255 0
-256 3 0
257 -807 -254 0
-257 807 0
-257 254 0
258 -730 -759 0
-258 730 0
-258 759 0
259 -258 -44 0
-259 258 0
-259 44 0
260 -808 -257 0
-260 808 0
-260 257 0
261 -754 -1 0
-261 754 0
-261 1 0
262 -261 -745 0
-262 261 0
-262 745 0
263 -809 -260 0
-263 809 0
-263 260 0
264 -19 -7 0
-264 19 0
-264 7 0
265 -264 -707 0
-265 264 0
-265 707 0
266 -810 -263 0
-266 810 0
-266 263 0
267 -43 -21 0
-267 43 0
-267 21 0
268 -267 -752 0
-268 267 0
-268 752 0
269 -811 -266 0
-269 811 0
-269 266 0
270 -716 -12 0
-270 716 0
-270 12 0
271 -270 -774 0
-271 270 0
-271 774 0
272 -812 -269 0
-272 812 0
-272 269 0
273 -28 -13 0
-273 28 0
-273 13 0
274 -273 -12 0
-274 273 0
-274 12 0
275 -813 -272 0
-275 813 0
-275 272 0
276 -711 -13 0
-276 711 0
-276 13 0
277 -276 -40 0
-277 276 0
-277 40 0
278 -814 -275 0
-278 814 0
-278 275 0
279 -721 -784 0
-279 721 0
-279 784 0
280 -279 -815 0
-280 279 0
-280 815 0
281 -816 -278 0
-281 816 0
-281 278 0
282 -37 -711 0
-282 37 0
-282 711 0
283 -282 -749 0
-283 282 0
-283 749 0
284 -817 -281 0
-284 817 0
-284 281 0
285 -779 -738 0
-285 779 0
-285 738 0
286 -285 -797 0
-286 285 0
-286 797 0
287 -818 -284 0
-287 818 0
-287 284 0
288 -31 -724 0
-288 31 0
-288 724 0
289 -288 -20 0
-289 288 0
-289 20 0
290 -819 -287 0
-290 819 0
-290 287 0
291 -49 -749 0
-291 49 0
-291 749 0
292 -291 -701 0
-292 291 0
-292 701 0
293 -820 -290 0
-293 820 0
-293 290 0
294 -10 -784 0
-294 10 0
-294 784 0
295 -294 -24 0
-295 294 0
-295 24 0
296 -821 -293 0
-296 821 0
-296 293 0
297 -48 -721 0
-297 48 0
-297 721 0
298 -297 -10 0
-298 297 0
-298 10 0
299 -822 -296 0
-299 822 0
-299 296 0
300 -763 -2 0
-300 763 0
-300 2 0
301 -300 -38 0
-301 300 0
-301 38 0
302 -823 -299 0
-302 823 0
-302 299 0
303 -797 -23 0
-303 797 0
-303 23 0
304 -303 -736 0
-304 303 0
-304 736 0
305 -824 -302 0
-305 824 0
-305 302 0
306 -16 -701 0
-306 16 0
-306 701 0
307 -306 -765 0
-307 306 0
-307 765 0
308 -825 -305 0
-308 825 0
-308 305 0
309 -716 -826 0
-309 716 0
-309 826 0
310 -309 -763 0
-310 309 0
-310 763 0
311 -827 -308 0
-311 827 0
-311 308 0
312 -47 -21 0
-312 47 0
-312 21 0
313 -312 -815 0
-313 312 0
-313 815 0
314 -828 -311 0
-314 828 0
-314 311 0
315 -23 -12 0
-315 23 0
-315 12 0
316 -315 -42 0
-316 315 0
-316 42 0
317 -829 -314 0
-317 829 0
-317 314 0
318 -48 -28 0
-318 48 0
-318 28 0
319 -318 -29 0
-319 318 0
-319 29 0
320 -830 -317 0
-320 830 0
-320 317 0
321 -705 -6 0
-321 705 0
-321 6 0
322 -321 -36 0
-322 321 0
-322 36 0
323 -831 -320 0
-323 831 0
-323 320 0
324 -22 -707 0
-324 22 0
-324 707 0
325 -324 -46 0
-325 324 0
-325 46 0
326 -832 -323 0
-326 832 0
-326 323 0
327 -312 -2 0
-327 312 0
-327 2 0
328 -833 -326 0
-328 833 0
-328 326 0
329 -716 -701 0
-329 716 0
-329 701 0
330 -329 -3 0
-330 329 0
-330 3 0
331 -834 -328 0
-331 834 0
-331 328 0
332 -722 -19 0
-332 722 0
-332 19 0
333 -332 -30 0
-333 332 0
-333 30 0
334 -835 -331 0
-334 835 0
-334 331 0
335 -49 -759 0
-335 49 0
-335 759 0
336 -335 -750 0
-336 335 0
-336 750 0
337 -836 -334 0
-337 836 0
-337 334 0
338 -709 -703 0
-338 709 0
-338 703 0
339 -338 -17 0
-339 338 0
-339 17 0
340 -837 -337 0
-340 837 0
-340 337 0
341 -733 -838 0
-341 733 0
-341 838 0
342 -341 -41 0
-342 341 0
-342 41 0
343 -839 -340 0
-343 839 0
-343 340 0
344 -37 -1 0
-344 37 0
-344 1 0
345 -344 -5 0
-345 344 0
-345 5 0
346 -840 -343 0
-346 840 0
-346 343 0
347 -48 -43 0
-347 48 0
-347 43 0
348 -347 -711 0
-348 347 0
-348 711 0
349 -841 -346 0
-349 841 0
-349 346 0
350 -15 -769 0
-350 15 0
-350 769 0
351 -350 -17 0
-351 350 0
-351 17 0
352 -842 -349 0
-352 842 0
-352 349 0
353 -40 -712 0
-353 40 0
-353 712 0
354 -353 -14 0
-354 353 0
-354 14 0
355 -843 -352 0
-355 843 0
-355 352 0
356 -844 -2 0
-356 844 0
-356 2 0
357 -356 -13 0
-357 356 0
-357 13 0
358 -845 -355 0
-358 845 0
-358 355 0
359 -26 -701 0
-359 26 0
-359 701 0
360 -359 -33 0
-360 359 0
-360 33 0
361 -846 -358 0
-361 846 0
-361 358 0
362 -44 -847 0
-362 44 0
-362 847 0
363 -362 -765 0
-363 362 0
-363 765 0
364 -848 -361 0
-364 848 0
-364 361 0
365 -27 -5 0
-365 27 0
-365 5 0
366 -365 -707 0
-366 365 0
-366 707 0
367 -849 -364 0
-367 849 0
-367 364 0
368 -24 -707 0
-368 24 0
-368 707 0
369 -368 -14 0
-369 368 0
-369 14 0
370 -850 -367 0
-370 850 0
-370 367 0
371 -276 -44 0
-371 276 0
-371 44 0
372 -851 -370 0
-372 851 0
-372 370 0
373 -38 -31 0
-373 38 0
-373 31 0
374 -373 -774 0
-374 373 0
-374 774 0
375 -852 -372 0
-375 852 0
-375 372 0
376 -712 -815 0
-376 712 0
-376 815 0
377 -376 -736 0
-377 376 0
-377 736 0
378 -853 -375 0
-378 853 0
-378 375 0
379 -731 -34 0
-379 731 0
-379 34 0
380 -379 -765 0
-380 379 0
-380 765 0
381 -854 -378 0
-381 854 0
-381 378 0
382 -21 -16 0
-382 21 0
-382 16 0
383 -382 -17 0
-383 382 0
-383 17 0
384 -855 -381 0
-384 855 0
-384 381 0
385 -38 -763 0
-385 38 0
-385 763 0
386 -385 -776 0
-386 385 0
-386 776 0
387 -856 -384 0
-387 856 0
-387 384 0
388 -34 -23 0
-388 34 0
-388 23 0
389 -388 -768 0
-389 388 0
-389 768 0
390 -857 -387 0
-390 857 0
-390 387 0
391 -838 -6 0
-391 838 0
-391 6 0
392 -391 -40 0
-392 391 0
-392 40 0
393 -858 -390 0
-393 858 0
-393 390 0
394 -773 -15 0
-394 773 0
-394 15 0
395 -394 -9 0
-395 394 0
-395 9 0
396 -859 -393 0
-396 859 0
-396 393 0
397 -719 -784 0
-397 719 0
-397 784 0
398 -397 -724 0
-398 397 0
-398 724 0
399 -860 -396 0
-399 860 0
-399 396 0
400 -773 -26 0
-400 773 0
-400 26 0
401 -400 -739 0
-401 400 0
-401 739 0
402 -861 -399 0
-402 861 0
-402 399 0
403 -709 -719 0
-403 709 0
-403 719 0
404 -403 -40 0
-404 403 0
-404 40 0
405 -862 -402 0
-405 862 0
-405 402 0
406 -722 -3 0
-406 722 0
-406 3 0
407 -406 -699 0
-407 406 0
-407 699 0
408 -863 -405 0
-408 863 0
-408 405 0
409 -18 -2 0
-409 18 0
-409 2 0
410 -409 -826 0
-410 409 0
-410 826 0
411 -864 -408 0
-411 864 0
-411 408 0
412 -43 -838 0
-412 43 0
-412 838 0
413 -412 -24 0
-413 412 0
-413 24 0
414 -865 -411 0
-414 865 0
-414 411 0
415 -35 -719 0
-415 35 0
-415 719 0
416 -415 -718 0
-416 415 0
-416 718 0
417 -866 -414 0
-417 866 0
-417 414 0
418 -17 -6 0
-418 17 0
-418 6 0
419 -418 -699 0
-419 418 0
-419 699 0
420 -867 -417 0
-420 867 0
-420 417 0
421 -39 -719 0
-421 39 0
-421 719 0
422 -421 -17 0
-422 421 0
-422 17 0
423 -868 -420 0
-423 868 0
-423 420 0
424 -47 -23 0
-424 47 0
-424 23 0
425 -424 -701 0
-425 424 0
-425 701 0
426 -869 -423 0
-426 869 0
-426 423 0
427 -47 -844 0
-427 47 0
-427 844 0
428 -427 -784 0
-428 427 0
-428 784 0
429 -870 -426 0
-429 870 0
-429 426 0
430 -792 -719 0
-430 792 0
-430 719 0
431 -430 -765 0
-431 430 0
-431 765 0
432 -871 -429 0
-432 871 0
-432 429 0
433 -844 -31 0
-433 844 0
-433 31 0
434 -433 -33 0
-434 433 0
-434 33 0
435 -872 -432 0
-435 872 0
-435 432 0
436 -759 -703 0
-436 759 0
-436 703 0
437 -436 -768 0
-437 436 0
-437 768 0
438 -873 -435 0
-438 873 0
-438 435 0
439 -47 -749 0
-439 47 0
-439 749 0
440 -439 -12 0
-440 439 0
-440 12 0
441 -874 -438 0
-441 874 0
-441 438 0
442 -45 -875 0
-442 45 0
-442 875 0
443 -442 -765 0
-443 442 0
-443 765 0
444 -876 -441 0
-444 876 0
-444 441 0
445 -877 -730 0
-445 877 0
-445 730 0
446 -445 -774 0
-446 445 0
-446 774 0
447 -878 -444 0
-447 878 0
-447 444 0
448 -738 -705 0
-448 738 0
-448 705 0
449 -448 -29 0
-449 448 0
-449 29 0
450 -879 -447 0
-450 879 0
-450 447 0
451 -13 -11 0
-451 13 0
-451 11 0
452 -451 -16 0
-452 451 0
-452 16 0
453 -880 -450 0
-453 880 0
-453 450 0
454 -759 -719 0
-454 759 0
-454 719 0
455 -454 -10 0
-455 454 0
-455 10 0
456 -881 -453 0
-456 881 0
-456 453 0
457 -721 -11 0
-457 721 0
-457 11 0
458 -457 -718 0
-458 457 0
-458 718 0
459 -882 -456 0
-459 882 0
-459 456 0
460 -29 -705 0
-460 29 0
-460 705 0
461 -460 -6 0
-461 460 0
-461 6 0
462 -883 -459 0
-462 883 0
-462 459 0
463 -50 -877 0
-463 50 0
-463 877 0
464 -463 -749 0
-464 463 0
-464 749 0
465 -884 -462 0
-465 884 0
-465 462 0
466 -792 -769 0
-466 792 0
-466 769 0
467 -466 -712 0
-467 466 0
-467 712 0
468 -885 -465 0
-468 885 0
-468 465 0
469 -749 -37 0
-469 749 0
-469 37 0
470 -469 -765 0
-470 469 0
-470 765 0
471 -886 -468 0
-471 886 0
-471 468 0
472 -48 -47 0
-472 48 0
-472 47 0
473 -472 -19 0
-473 472 0
-473 19 0
474 -887 -471 0
-474 887 0
-474 471 0
475 -43 -769 0
-475 43 0
-475 769 0
476 -475 -718 0
-476 475 0
-476 718 0
477 -888 -474 0
-477 888 0
-477 474 0
478 -36 -3 0
-478 36 0
-478 3 0
479 -478 -797 0
-479 478 0
-479 797 0
480 -889 -477 0
-480 889 0
-480 477 0
481 -759 -14 0
-481 759 0
-481 14 0
482 -481 -730 0
-482 481 0
-482 730 0
483 -890 -480 0
-483 890 0
-483 480 0
484 -773 -23 0
-484 773 0
-484 23 0
485 -484 -5 0
-485 484 0
-485 5 0
486 -891 -483 0
-486 891 0
-486 483 0
487 -50 -712 0
-487 50 0
-487 712 0
488 -487 -722 0
-488 487 0
-488 722 0
489 -892 -486 0
-489 892 0
-489 486 0
490 -722 -712 0
-490 722 0
-490 712 0
491 -490 -757 0
-491 490 0
-491 757 0
492 -893 -489 0
-492 893 0
-492 489 0
493 -774 -707 0
-493 774 0
-493 707 0
494 -493 -33 0
-494 493 0
-494 33 0
495 -894 -492 0
-495 894 0
-495 492 0
496 -738 -838 0
-496 738 0
-496 838 0
497 -496 -40 0
-497 496 0
-497 40 0
498 -895 -495 0
-498 895 0
-498 495 0
499 -48 -37 0
-499 48 0
-499 37 0
500 -499 -13 0
-500 499 0
-500 13 0
501 -896 -498 0
-501 896 0
-501 498 0
502 -34 -709 0
-502 34 0
-502 709 0
503 -502 -784 0
-503 502 0
-503 784 0
504 -897 -501 0
-504 897 0
-504 501 0
505 -252 -736 0
-505 252 0
-505 736 0
506 -898 -504 0
-506 898 0
-506 504 0
507 -22 -784 0
-507 22 0
-507 784 0
508 -507 -46 0
-508 507 0
-508 46 0
509 -899 -506 0
-509 899 0
-509 506 0
510 -39 -701 0
-510 39 0
-510 701 0
511 -510 -768 0
-511 510 0
-511 768 0
512 -900 -509 0
-512 900 0
-512 509 0
513 -49 -696 0
-513 49 0
-513 696 0
514 -513 -724 0
-514 513 0
-514 724 0
515 -901 -512 0
-515 901 0
-515 512 0
516 -731 -6 0
-516 731 0
-516 6 0
517 -516 -36 0
-517 516 0
-517 36 0
518 -902 -515 0
-518 902 0
-518 515 0
519 -779 -769 0
-519 779 0
-519 769 0
520 -519 -13 0
-520 519 0
-520 13 0
521 -903 -518 0
-521 903 0
-521 518 0
522 -36 -707 0
-522 36 0
-522 707 0
523 -522 -41 0
-523 522 0
-523 41 0
524 -904 -521 0
-524 904 0
-524 521 0
525 -460 -9 0
-525 460 0
-525 9 0
526 -905 -524 0
-526 905 0
-526 524 0
527 -47 -24 0
-527 47 0
-527 24 0
528 -527 -42 0
-528 527 0
-528 42 0
529 -906 -526 0
-529 906 0
-529 526 0
530 -27 -847 0
-530 27 0
-530 847 0
531 -530 -40 0
-531 530 0
-531 40 0
532 -907 -529 0
-532 907 0
-532 529 0
533 -40 -709 0
-533 40 0
-533 709 0
534 -533 -699 0
-534 533 0
-534 699 0
535 -908 -532 0
-535 908 0
-535 532 0
536 -838 -22 0
-536 838 0
-536 22 0
537 -536 -46 0
-537 536 0
-537 46 0
538 -909 -535 0
-538 909 0
-538 535 0
539 -50 -773 0
-539 50 0
-539 773 0
540 -539 -29 0
-540 539 0
-540 29 0
541 -910 -538 0
-541 910 0
-541 538 0
542 -826 -6 0
-542 826 0
-542 6 0
543 -542 -17 0
-543 542 0
-543 17 0
544 -911 -541 0
-544 911 0
-544 541 0
545 -715 -10 0
-545 715 0
-545 10 0
546 -545 -41 0
-546 545 0
-546 41 0
547 -912 -544 0
-547 912 0
-547 544 0
548 -49 -709 0
-548 49 0
-548 709 0
549 -548 -782 0
-549 548 0
-549 782 0
550 -913 -547 0
-550 913 0
-550 547 0
551 -27 -23 0
-551 27 0
-551 23 0
552 -551 -752 0
-552 551 0
-552 752 0
553 -914 -550 0
-553 914 0
-553 550 0
554 -877 -707 0
-554 877 0
-554 707 0
555 -554 -16 0
-555 554 0
-555 16 0
556 -915 -553 0
-556 915 0
-556 553 0
557 -46 -722 0
-557 46 0
-557 722 0
558 -557 -745 0
-558 557 0
-558 745 0
559 -916 -556 0
-559 916 0
-559 556 0
560 -35 -715 0
-560 35 0
-560 715 0
561 -560 -6 0
-561 560 0
-561 6 0
562 -917 -559 0
-562 917 0
-562 559 0
563 -31 -27 0
-563 31 0
-563 27 0
564 -563 -745 0
-564 563 0
-564 745 0
565 -918 -562 0
-565 918 0
-565 562 0
566 -712 -5 0
-566 712 0
-566 5 0
567 -566 -8 0
-567 566 0
-567 8 0
568 -919 -565 0
-568 919 0
-568 565 0
569 -50 -709 0
-569 50 0
-569 709 0
570 -569 -14 0
-570 569 0
-570 14 0
571 -920 -568 0
-571 920 0
-571 568 0
572 -142 -750 0
-572 142 0
-572 750 0
573 -921 -571 0
-573 921 0
-573 571 0
574 -30 -4 0
-574 30 0
-574 4 0
575 -574 -776 0
-575 574 0
-575 776 0
576 -922 -573 0
-576 922 0
-576 573 0
577 -750 -37 0
-577 750 0
-577 37 0
578 -577 -699 0
-578 577 0
-578 699 0
579 -923 -576 0
-579 923 0
-579 576 0
580 -48 -707 0
-580 48 0
-580 707 0
581 -580 -768 0
-581 580 0
-581 768 0
582 -924 -579 0
-582 924 0
-582 579 0
583 -26 -3 0
-583 26 0
-583 3 0
584 -583 -33 0
-584 583 0
-584 33 0
585 -925 -582 0
-585 925 0
-585 582 0
586 -754 -733 0
-586 754 0
-586 733 0
587 -586 -9 0
-587 586 0
-587 9 0
588 -926 -585 0
-588 926 0
-588 585 0
589 -749 -716 0
-589 749 0
-589 716 0
590 -589 -750 0
-590 589 0
-590 750 0
591 -927 -588 0
-591 927 0
-591 588 0
592 -27 -784 0
-592 27 0
-592 784 0
593 -592 -707 0
-593 592 0
-593 707 0
594 -928 -591 0
-594 928 0
-594 591 0
595 -773 -705 0
-595 773 0
-595 705 0
596 -595 -745 0
-596 595 0
-596 745 0
597 -929 -594 0
-597 929 0
-597 594 0
598 -709 -769 0
-598 709 0
-598 769 0
599 -598 -14 0
-599 598 0
-599 14 0
600 -930 -597 0
-600 930 0
-600 597 0
601 -26 -707 0
-601 26 0
-601 707 0
602 -601 -745 0
-602 601 0
-602 745 0
603 -931 -600 0
-603 931 0
-603 600 0
604 -745 -29 0
-604 745 0
-604 29 0
605 -604 -765 0
-605 604 0
-605 765 0
606 -932 -603 0
-606 932 0
-606 603 0
607 -875 -18 0
-607 875 0
-607 18 0
608 -607 -722 0
-608 607 0
-608 722 0
609 -933 -606 0
-609 933 0
-609 606 0
610 -13 -3 0
-610 13 0
-610 3 0
611 -610 -934 0
-611 610 0
-611 934 0
612 -935 -609 0
-612 935 0
-612 609 0
613 -716 -10 0
-613 716 0
-613 10 0
614 -613 -736 0
-614 613 0
-614 736 0
615 -936 -612 0
-615 936 0
-615 612 0
616 -32 -711 0
-616 32 0
-616 711 0
617 -616 -750 0
-617 616 0
-617 750 0
618 -937 -615 0
-618 937 0
-618 615 0
619 -409 -724 0
-619 409 0
-619 724 0
620 -938 -618 0
-620 938 0
-620 618 0
621 -47 -36 0
-621 47 0
-621 36 0
622 -621 -750 0
-622 621 0
-622 750 0
623 -939 -620 0
-623 939 0
-623 620 0
624 -37 -719 0
-624 37 0
-624 719 0
625 -624 -4 0
-625 624 0
-625 4 0
626 -940 -623 0
-626 940 0
-626 623 0
627 -763 -13 0
-627 763 0
-627 13 0
628 -627 -765 0
-628 627 0
-628 765 0
629 -941 -626 0
-629 941 0
-629 626 0
630 -779 -719 0
-630 779 0
-630 719 0
631 -630 -16 0
-631 630 0
-631 16 0
632 -942 -629 0
-632 942 0
-632 629 0
633 -716 -23 0
-633 716 0
-633 23 0
634 -633 -16 0
-634 633 0
-634 16 0
635 -943 -632 0
-635 943 0
-635 632 0
636 -15 -5 0
-636 15 0
-636 5 0
637 -636 -712 0
-637 636 0
-637 712 0
638 -944 -635 0
-638 944 0
-638 635 0
639 -703 -3 0
-639 703 0
-639 3 0
640 -639 -750 0
-640 639 0
-640 750 0
641 -945 -638 0
-641 945 0
-641 638 0
642 -712 -709 0
-642 712 0
-642 709 0
643 -642 -41 0
-643 642 0
-643 41 0
644 -946 -641 0
-644 946 0
-644 641 0
645 -23 -7 0
-645 23 0
-645 7 0
646 -645 -752 0
-646 645 0
-646 752 0
647 -947 -644 0
-647 947 0
-647 644 0
648 -23 -4 0
-648 23 0
-648 4 0
649 -648 -29 0
-649 648 0
-649 29 0
650 -948 -647 0
-650 948 0
-650 647 0
651 -50 -1 0
-651 50 0
-651 1 0
652 -651 -10 0
-652 651 0
-652 10 0
653 -949 -650 0
-653 949 0
-653 650 0
654 -716 -719 0
-654 716 0
-654 719 0
655 -654 -16 0
-655 654 0
-655 16 0
656 -950 -653 0
-656 950 0
-656 653 0
657 -738 -711 0
-657 738 0
-657 711 0
658 -657 -16 0
-658 657 0
-658 16 0
659 -951 -656 0
-659 951 0
-659 656 0
660 -34 -711 0
-660 34 0
-660 711 0
661 -660 -8 0
-661 660 0
-661 8 0
662 -952 -659 0
-662 952 0
-662 659 0
663 -773 -37 0
-663 773 0
-663 37 0
664 -663 -47 0
-664 663 0
-664 47 0
665 -953 -662 0
-665 953 0
-665 662 0
666 -50 -759 0
-666 50 0
-666 759 0
667 -666 -730 0
-667 666 0
-667 730 0
668 -954 -665 0
-668 954 0
-668 665 0
669 -773 -934 0
-669 773 0
-669 934 0
670 -669 -736 0
-670 669 0
-670 736 0
671 -955 -668 0
-671 955 0
-671 668 0
672 -715 -6 0
-672 715 0
-672 6 0
673 -672 -30 0
-673 672 0
-673 30 0
674 -956 -671 0
-674 956 0
-674 671 0
675 -15 -739 0
-675 15 0
-675 739 0
676 -675 -736 0
-676 675 0
-676 736 0
677 -957 -674 0
-677 957 0
-677 674 0
678 -30 -716 0
-678 30 0
-678 716 0
679 -678 -745 0
-679 678 0
-679 745 0
680 -958 -677 0
-680 958 0
-680 677 0
681 -719 -6 0
-681 719 0
-681 6 0
682 -681 -16 0
-682 681 0
-682 16 0
683 -959 -680 0
-683 959 0
-683 680 0
684 -749 -39 0
-684 749 0
-684 39 0
685 -684 -750 0
-685 684 0
-685 750 0
686 -960 -683 0
-686 960 0
-686 683 0
687 -773 -712 0
-687 773 0
-687 712 0
688 -687 -16 0
-688 687 0
-688 16 0
689 -961 -686 0
-689 961 0
-689 686 0
690 -11 -815 0
-690 11 0
-690 815 0
691 -690 -724 0
-691 690 0
-691 724 0
692 -962 -689 0
-692 962 0
-692 689 0
693 -45 -28 0
-693 45 0
-693 28 0
694 -693 -41 0
-694 693 0
-694 41 0
695 -963 -692 0
-695 963 0
-695 692 0
-696 -3 0
696 3 0
-697 -54 0
697 54 0
-698 -52 0
698 52 0
-699 -9 0
699 9 0
-700 -57 0
700 57 0
-701 -12 0
701 12 0
-702 -60 0
702 60 0
-703 -10 0
703 10 0
-704 -63 0
704 63 0
-705 -15 0
705 15 0
-706 -66 0
706 66 0
-707 -6 0
707 6 0
-708 -69 0
708 69 0
-709 -18 0
709 18 0
-710 -72 0
710 72 0
-711 -21 0
711 21 0
-712 -22 0
712 22 0
-713 -75 0
713 75 0
-714 -78 0
714 78 0
-715 -27 0
715 27 0
-716 -28 0
716 28 0
-717 -81 0
717 81 0
-718 -29 0
718 29 0
-719 -7 0
719 7 0
-720 -84 0
720 84 0
-721 -26 0
721 26 0
-722 -32 0
722 32 0
-723 -87 0
723 87 0
-724 -14 0
724 14 0
-725 -90 0
725 90 0
-726 -93 0
726 93 0
-727 -96 0
727 96 0
-728 -36 0
728 36 0
-729 -99 0
729 99 0
-730 -38 0
730 38 0
-731 -37 0
731 37 0
-732 -102 0
732 102 0
-733 -39 0
733 39 0
-734 -105 0
734 105 0
-735 -108 0
735 108 0
-736 -17 0
736 17 0
-737 -111 0
737 111 0
-738 -31 0
738 31 0
-739 -4 0
739 4 0
-740 -114 0
740 114 0
-741 -117 0
741 117 0
-742 -120 0
742 120 0
-743 -122 0
743 122 0
-744 -125 0
744 125 0
-745 -44 0
745 44 0
-746 -128 0
746 128 0
-747 -131 0
747 131 0
-748 -134 0
748 134 0
-749 -45 0
749 45 0
-750 -46 0
750 46 0
-751 -137 0
751 137 0
-752 -8 0
752 8 0
-753 -140 0
753 140 0
-754 -40 0
754 40 0
-755 -143 0
755 143 0
-756 -146 0
756 146 0
-757 -16 0
757 16 0
-758 -149 0
758 149 0
-759 -34 0
759 34 0
-760 -152 0
760 152 0
-761 -155 0
761 155 0
-762 -158 0
762 158 0
-763 -30 0
763 30 0
-764 -161 0
764 161 0
-765 -25 0
765 25 0
-766 -164 0
766 164 0
-767 -167 0
767 167 0
-768 -24 0
768 24 0
-769 -1 0
769 1 0
-770 -170 0
770 170 0
-771 -173 0
771 173 0
-772 -176 0
772 176 0
-773 -48 0
773 48 0
-774 -41 0
774 41 0
-775 -179 0
775 179 0
-776 -33 0
776 33 0
-777 -182 0
777 182 0
-778 -185 0
778 185 0
-779 -49 0
779 49 0
-780 -188 0
780 188 0
-781 -191 0
781 191 0
-782 -50 0
782 50 0
-783 -194 0
783 194 0
-784 -2 0
784 2 0
-785 -197 0
785 197 0
-786 -200 0
786 200 0
-787 -203 0
787 203 0
-788 -206 0
788 206 0
-789 -209 0
789 209 0
-790 -212 0
790 212 0
-791 -215 0
791 215 0
-792 -47 0
792 47 0
-793 -218 0
793 218 0
-794 -221 0
794 221 0
-795 -224 0
795 224 0
-796 -227 0
796 227 0
-797 -42 0
797 42 0
-798 -230 0
798 230 0
-799 -233 0
799 233 0
-800 -236 0
800 236 0
-801 -239 0
801 239 0
-802 -242 0
802 242 0
-803 -245 0
803 245 0
-804 -247 0
804 247 0
-805 -250 0
805 250 0
-806 -253 0
806 253 0
-807 -256 0
807 256 0
-808 -259 0
808 259 0
-809 -262 0
809 262 0
-810 -265 0
810 265 0
-811 -268 0
811 268 0
-812 -271 0
812 271 0
-813 -274 0
813 274 0
-814 -277 0
814 277 0
-815 -5 0
815 5 0
-816 -280 0
816 280 0
-817 -283 0
817 283 0
-818 -286 0
818 286 0
-819 -289 0
819 289 0
-820 -292 0
820 292 0
-821 -295 0
821 295 0
-822 -298 0
822 298 0
-823 -301 0
823 301 0
-824 -304 0
824 304 0
-825 -307 0
825 307 0
-826 -13 0
826 13 0
-827 -310 0
827 310 0
-828 -313 0
828 313 0
-829 -316 0
829 316 0
-830 -319 0
830 319 0
-831 -322 0
831 322 0
-832 -325 0
832 325 0
-833 -327 0
833 327 0
-834 -330 0
834 330 0
-835 -333 0
835 333 0
-836 -336 0
836 336 0
-837 -339 0
837 339 0
-838 -23 0
838 23 0
-839 -342 0
839 342 0
-840 -345 0
840 345 0
-841 -348 0
841 348 0
-842 -351 0
842 351 0
-843 -354 0
843 354 0
-844 -35 0
844 35 0
-845 -357 0
845 357 0
-846 -360 0
846 360 0
-847 -11 0
847 11 0
-848 -363 0
848 363 0
-849 -366 0
849 366 0
-850 -369 0
850 369 0
-851 -371 0
851 371 0
-852 -374 0
852 374 0
-853 -377 0
853 377 0
-854 -380 0
854 380 0
-855 -383 0
855 383 0
-856 -386 0
856 386 0
-857 -389 0
857 389 0
-858 -392 0
858 392 0
-859 -395 0
859 395 0
-860 -398 0
860 398 0
-861 -401 0
861 401 0
-862 -404 0
862 404 0
-863 -407 0
863 407 0
-864 -410 0
864 410 0
-865 -413 0
865 413 0
-866 -416 0
866 416 0
-867 -419 0
867 419 0
-868 -422 0
868 422 0
-869 -425 0
869 425 0
-870 -428 0
870 428 0
-871 -431 0
871 431 0
-872 -434 0
872 434 0
-873 -437 0
873 437 0
-874 -440 0
874 440 0
-875 -19 0
875 19 0
-876 -443 0
876 443 0
-877 -43 0
877 43 0
-878 -446 0
878 446 0
-879 -449 0
879 449 0
-880 -452 0
880 452 0
-881 -455 0
881 455 0
-882 -458 0
882 458 0
-883 -461 0
883 461 0
-884 -464 0
884 464 0
-885 -467 0
885 467 0
-886 -470 0
886 470 0
-887 -473 0
887 473 0
-888 -476 0
888 476 0
-889 -479 0
889 479 0
-890 -482 0
890 482 0
-891 -485 0
891 485 0
-892 -488 0
892 488 0
-893 -491 0
893 491 0
-894 -494 0
894 494 0
-895 -497 0
895 497 0
-896 -500 0
896 500 0
-897 -503 0
897 503 0
-898 -505 0
898 505 0
-899 -508 0
899 508 0
-900 -511 0
900 511 0
-901 -514 0
901 514 0
-902 -517 0
902 517 0
-903 -520 0
903 520 0
-904 -523 0
904 523 0
-905 -525 0
905 525 0
-906 -528 0
906 528 0
-907 -531 0
907 531 0
-908 -534 0
908 534 0
-909 -537 0
909 537 0
-910 -540 0
910 540 0
-911 -543 0
911 543 0
-912 -546 0
912 546 0
-913 -549 0
913 549 0
-914 -552 0
914 552 0
-915 -555 0
915 555 0
-916 -558 0
916 558 0
-917 -561 0
917 561 0
-918 -564 0
918 564 0
-919 -567 0
919 567 0
-920 -570 0
920 570 0
-921 -572 0
921 572 0
-922 -575 0
922 575 0
-923 -578 0
923 578 0
-924 -581 0
924 581 0
-925 -584 0
925 584 0
-926 -587 0
926 587 0
-927 -590 0
927 590 0
-928 -593 0
928 593 0
-929 -596 0
929 596 0
-930 -599 0
930 599 0
-931 -602 0
931 602 0
-932 -605 0
932 605 0
-933 -608 0
933 608 0
-934 -20 0
934 20 0
-935 -611 0
935 611 0
-936 -614 0
936 614 0
-937 -617 0
937 617 0
-938 -619 0
938 619 0
-939 -622 0
939 622 0
-940 -625 0
940 625 0
-941 -628 0
941 628 0
-942 -631 0
942 631 0
-943 -634 0
943 634 0
-944 -637 0
944 637 0
-945 -640 0
945 640 0
-946 -643 0
946 643 0
-947 -646 0
947 646 0
-948 -649 0
948 649 0
-949 -652 0
949 652 0
-950 -655 0
950 655 0
-951 -658 0
951 658 0
-952 -661 0
952 661 0
-953 -664 0
953 664 0
-954 -667 0
954 667 0
-955 -670 0
955 670 0
-956 -673 0
956 673 0
-957 -676 0
957 676 0
-958 -679 0
958 679 0
-959 -682 0
959 682 0
-960 -685 0
960 685 0
-961 -688 0
961 688 0
-962 -691 0
962 691 0
-963 -694 0
963 694 0
695 0
